NAME : engezf\1a2b3c4a.knd
COMMENT : 
TYPE : CVRP
DIMENSION : 201
EDGE_WEIGHT_TYPE : EUC_2D
CAPACITY : 10100
CAPACITY_VOL : 50
NODE_COORD_TYPE : TWOD_COORDS
NODE_COORD_SECTION
1 23452 56766
2 24683 55828
3 24988 56795
4 23544 58301
5 24548 57833
6 24389 55556
7 24389 55556
8 23586 58296
9 23821 55278
10 24930 57178
11 23849 55299
12 23219 55266
13 23885 55300
14 23699 55276
15 23142 55294
16 23138 55313
17 24675 55942
18 23614 55305
19 24790 56103
20 23827 55331
21 23174 55328
22 23174 55328
23 24515 55785
24 23212 55335
25 23803 55351
26 24196 55566
27 23101 55369
28 23783 55369
29 23975 55432
30 24174 55573
31 23984 55453
32 24853 56635
33 24853 56635
34 24792 56341
35 24002 55471
36 24455 57735
37 24781 56321
38 23032 55433
39 24337 55689
40 24802 56449
41 24802 56449
42 24802 56449
43 24802 56449
44 23984 55481
45 24665 56133
46 23121 55428
47 23888 55469
48 24426 55820
49 23938 55491
50 23769 55444
51 23938 55491
52 23824 55466
53 24030 55536
54 23347 55426
55 24564 56045
56 23425 55430
57 24001 55548
58 23306 55484
59 24248 55746
60 23214 55482
61 23819 55508
62 24359 55851
63 24272 55769
64 24662 57205
65 24662 57205
66 24184 55741
67 24634 56265
68 23818 55550
69 24427 55950
70 23489 55512
71 24633 57207
72 23237 55540
73 24237 55807
74 24179 55785
75 23541 55545
76 23785 57952
77 23101 55593
78 23101 55593
79 24281 55891
80 23351 55577
81 24070 55766
82 24382 56034
83 24179 55832
84 24308 57558
85 24214 55883
86 23682 55610
87 23787 55642
88 24377 56090
89 24427 56147
90 24427 56147
91 24085 55818
92 24518 56310
93 24438 56209
94 24057 55822
95 24255 55974
96 23901 55730
97 24167 55906
98 23161 55676
99 23353 55666
100 23353 55666
101 23510 55666
102 24293 56051
103 24363 56159
104 24248 56001
105 23593 55677
106 24322 56088
107 23374 55671
108 23383 55687
109 24508 56491
110 23938 57745
111 24095 55906
112 23588 55702
113 24095 55906
114 23553 55697
115 23979 55846
116 23836 57747
117 23625 55727
118 24176 56010
119 23266 55731
120 24141 55994
121 23555 55757
122 23906 55852
123 24274 56207
124 23835 55833
125 23835 55833
126 23997 55949
127 23978 55941
128 24225 56172
129 23637 55821
130 23951 55965
131 24213 56195
132 24213 56195
133 23255 55840
134 24170 56164
135 24255 56295
136 24130 56129
137 23963 55999
138 24095 56111
139 23951 56005
140 23830 55923
141 24169 56220
142 23519 55875
143 23532 55879
144 24180 57250
145 23868 57541
146 24180 57250
147 23879 56006
148 23789 55960
149 23946 56063
150 24021 56114
151 23789 55960
152 23392 55909
153 24085 56185
154 23801 55970
155 23424 55917
156 24034 56139
157 23379 55933
158 23630 57572
159 23788 56004
160 23540 55953
161 23977 56130
162 24161 56394
163 23964 56161
164 24073 56284
165 23780 56048
166 23999 57292
167 23910 56180
168 23033 56180
169 23749 56115
170 24136 56764
171 23038 57291
172 24051 57057
173 24051 57057
174 23203 57370
175 24073 56832
176 23163 56220
177 22959 56385
178 23163 56220
179 23892 57196
180 23062 57227
181 23062 57227
182 24045 56743
183 23341 56177
184 23827 56338
185 23702 56303
186 23702 56303
187 23183 57202
188 23793 56432
189 23630 57181
190 23793 57032
191 23661 57060
192 23194 56531
193 23777 56905
194 23194 56531
195 23681 56546
196 23358 57024
197 23474 57009
198 23630 56823
199 23289 56817
200 23522 56645
201 23541 56733
DEMAND_SECTION
1 0 0
2 50 0
3 10 0
4 60 0
5 30 0
6 10 0
7 40 0
8 50 0
9 80 0
10 50 0
11 10 0
12 40 0
13 90 0
14 40 0
15 30 0
16 80 0
17 90 0
18 30 0
19 70 0
20 70 0
21 90 0
22 60 0
23 50 0
24 10 0
25 30 0
26 70 0
27 30 0
28 10 0
29 50 0
30 30 0
31 40 0
32 20 0
33 30 0
34 70 0
35 40 0
36 50 0
37 70 0
38 40 0
39 40 0
40 60 0
41 50 0
42 50 0
43 10 0
44 80 0
45 30 0
46 40 0
47 50 0
48 40 0
49 80 0
50 20 0
51 50 0
52 40 0
53 80 0
54 10 0
55 70 0
56 10 0
57 50 0
58 30 0
59 80 0
60 10 0
61 40 0
62 30 0
63 60 0
64 20 0
65 60 0
66 90 0
67 60 0
68 70 0
69 60 0
70 60 0
71 20 0
72 90 0
73 90 0
74 90 0
75 80 0
76 60 0
77 10 0
78 10 0
79 60 0
80 40 0
81 20 0
82 30 0
83 90 0
84 50 0
85 50 0
86 60 0
87 10 0
88 80 0
89 50 0
90 50 0
91 80 0
92 80 0
93 40 0
94 80 0
95 30 0
96 10 0
97 10 0
98 30 0
99 60 0
100 50 0
101 40 0
102 70 0
103 30 0
104 30 0
105 70 0
106 10 0
107 10 0
108 80 0
109 90 0
110 70 0
111 60 0
112 20 0
113 30 0
114 50 0
115 90 0
116 10 0
117 50 0
118 50 0
119 90 0
120 80 0
121 30 0
122 70 0
123 60 0
124 90 0
125 40 0
126 70 0
127 20 0
128 10 0
129 60 0
130 30 0
131 80 0
132 10 0
133 10 0
134 60 0
135 30 0
136 50 0
137 10 0
138 60 0
139 30 0
140 70 0
141 60 0
142 20 0
143 10 0
144 50 0
145 10 0
146 30 0
147 60 0
148 40 0
149 60 0
150 50 0
151 10 0
152 30 0
153 80 0
154 30 0
155 80 0
156 50 0
157 60 0
158 50 0
159 20 0
160 10 0
161 50 0
162 60 0
163 10 0
164 80 0
165 20 0
166 40 0
167 20 0
168 80 0
169 40 0
170 90 0
171 10 0
172 30 0
173 50 0
174 10 0
175 60 0
176 70 0
177 10 0
178 50 0
179 30 0
180 50 0
181 70 0
182 80 0
183 80 0
184 20 0
185 80 0
186 30 0
187 60 0
188 10 0
189 90 0
190 30 0
191 30 0
192 10 0
193 20 0
194 40 0
195 50 0
196 60 0
197 30 0
198 70 0
199 90 0
200 30 0
201 10 0
PICKUP_SECTION
1 0 0
2 0 0
3 0 0
4 0 0
5 0 0
6 0 0
7 0 0
8 0 0
9 0 0
10 0 0
11 0 0
12 0 0
13 0 0
14 0 0
15 0 0
16 0 0
17 0 0
18 0 0
19 0 0
20 0 0
21 0 0
22 0 0
23 0 0
24 0 0
25 0 0
26 0 0
27 0 0
28 0 0
29 0 0
30 0 0
31 0 0
32 0 0
33 0 0
34 0 0
35 0 0
36 0 0
37 0 0
38 0 0
39 0 0
40 0 0
41 0 0
42 0 0
43 0 0
44 0 0
45 0 0
46 0 0
47 0 0
48 0 0
49 0 0
50 0 0
51 0 0
52 0 0
53 0 0
54 0 0
55 0 0
56 0 0
57 0 0
58 0 0
59 0 0
60 0 0
61 0 0
62 0 0
63 0 0
64 0 0
65 0 0
66 0 0
67 0 0
68 0 0
69 0 0
70 0 0
71 0 0
72 0 0
73 0 0
74 0 0
75 0 0
76 0 0
77 0 0
78 0 0
79 0 0
80 0 0
81 0 0
82 0 0
83 0 0
84 0 0
85 0 0
86 0 0
87 0 0
88 0 0
89 0 0
90 0 0
91 0 0
92 0 0
93 0 0
94 0 0
95 0 0
96 0 0
97 0 0
98 0 0
99 0 0
100 0 0
101 0 0
102 0 0
103 0 0
104 0 0
105 0 0
106 0 0
107 0 0
108 0 0
109 0 0
110 0 0
111 0 0
112 0 0
113 0 0
114 0 0
115 0 0
116 0 0
117 0 0
118 0 0
119 0 0
120 0 0
121 0 0
122 0 0
123 0 0
124 0 0
125 0 0
126 0 0
127 0 0
128 0 0
129 0 0
130 0 0
131 0 0
132 0 0
133 0 0
134 0 0
135 0 0
136 0 0
137 0 0
138 0 0
139 0 0
140 0 0
141 0 0
142 0 0
143 0 0
144 0 0
145 0 0
146 0 0
147 0 0
148 0 0
149 0 0
150 0 0
151 0 0
152 0 0
153 0 0
154 0 0
155 0 0
156 0 0
157 0 0
158 0 0
159 0 0
160 0 0
161 0 0
162 0 0
163 0 0
164 0 0
165 0 0
166 0 0
167 0 0
168 0 0
169 0 0
170 0 0
171 0 0
172 0 0
173 0 0
174 0 0
175 0 0
176 0 0
177 0 0
178 0 0
179 0 0
180 0 0
181 0 0
182 0 0
183 0 0
184 0 0
185 0 0
186 0 0
187 0 0
188 0 0
189 0 0
190 0 0
191 0 0
192 0 0
193 0 0
194 0 0
195 0 0
196 0 0
197 0 0
198 0 0
199 0 0
200 0 0
201 0 0
TIME_WINDOW_SECTION
2  7:00 18:00
3  7:00 18:00
4 14:30 15:00
5 14:00 14:45
6  7:00 18:00
7  7:00 18:00
8  7:00 18:00
9  7:00 18:00
10 10:30 11:15
10 14:00 14:45
11  7:00 18:00
12 13:15 13:45
12 14:45 15:30
13 13:00 13:30
14  7:00 18:00
15  7:00 18:00
16  7:00 18:00
17  7:00 18:00
18  7:00 18:00
19  7:00 18:00
20 10:15 10:45
21 13:00 13:45
21 15:00 15:30
22  7:00 18:00
23  7:00 18:00
24  7:00 18:00
25  7:00 18:00
26 11:30 12:30
27  7:00 18:00
28 12:30 13:15
28 14:30 15:00
29  7:00 18:00
30  7:30  8:15
30  9:45 10:15
31  8:15  9:15
31 11:45 12:15
32  9:15 10:00
32 14:30 15:30
33  7:00 18:00
34  9:30 10:30
35  7:30  8:15
35 12:30 13:30
36  8:15  9:15
36 13:30 14:15
37  7:00 18:00
38  7:00 18:00
39  7:00 18:00
40 13:15 13:45
40 14:45 15:45
41  7:00 18:00
42  7:00 18:00
43 14:45 15:30
44  7:00 18:00
45  7:00 18:00
46 10:00 11:00
46 13:15 14:00
47  7:00 18:00
48  7:00 18:00
49  7:00 18:00
50 10:30 11:30
50 15:00 15:30
51 10:00 10:30
52  7:00 18:00
53  7:00 18:00
54  7:00 18:00
55  7:00 18:00
56  7:00 18:00
57 12:15 13:15
58  7:00 18:00
59  9:00  9:45
60  7:00 18:00
61  7:00 18:00
62  8:45  9:15
63  7:00 18:00
64  7:00 18:00
65  7:00 18:00
66 11:00 11:30
66 14:00 15:00
67 13:30 14:30
68  7:00 18:00
69  7:00 18:00
70  7:00 18:00
71  8:45  9:15
71 11:00 11:30
72 10:30 11:15
73 14:30 15:15
74  7:00 18:00
75 12:30 13:30
76 10:00 10:45
76 13:15 14:15
77  9:30 10:15
78  7:00 18:00
79 10:15 10:45
80  7:00 18:00
81  7:00 18:00
82 10:30 11:30
83  7:00 18:00
84 11:30 12:30
84 14:45 15:30
85 10:15 11:15
86  7:00 18:00
87  7:00 18:00
88 10:30 11:00
88 13:45 14:15
89  7:00 18:00
90  9:15 10:15
91  7:00 18:00
92  8:45  9:15
92 15:00 15:45
93  7:00 18:00
94  7:00 18:00
95 10:15 11:15
95 14:15 15:00
96  7:00 18:00
97 13:15 14:15
98  9:30 10:15
99 12:15 13:00
100 10:30 11:30
101 12:30 13:00
101 14:00 14:30
102 15:15 16:15
103  7:00  7:45
103 10:00 11:00
104  7:15  8:15
104 12:30 13:15
105  7:30  8:15
105 10:15 11:15
106  7:00 18:00
107  7:30  8:30
107 12:15 12:45
108  7:30  8:30
108 11:45 12:15
109  7:00 18:00
110 11:15 12:00
110 15:15 15:45
111  7:15  8:00
111 11:00 11:30
112 14:30 15:00
113  8:00  8:45
114 13:30 14:30
115  9:30 10:30
116 10:45 11:15
116 14:00 15:00
117 10:45 11:45
117 13:00 14:00
118 12:30 13:30
119 14:00 15:00
120  7:00 18:00
121 12:45 13:30
121 15:00 15:30
122  7:00 18:00
123  7:00 18:00
124 15:15 15:45
125 13:00 14:00
126  7:00 18:00
127  7:30  8:15
127 12:15 12:45
128  7:00 18:00
129  8:15  8:45
129 10:15 10:45
130  7:00 18:00
131  7:00 18:00
132 15:15 15:45
133 13:15 13:45
134 11:00 11:30
134 13:00 14:00
135 15:30 16:15
136  7:00 18:00
137  7:00 18:00
138  7:00 18:00
139  7:00 18:00
140 11:00 11:45
141  9:45 10:45
141 13:45 14:45
142  7:00 18:00
143 14:45 15:15
144  7:00 18:00
145  7:00 18:00
146 10:00 11:00
147  7:00 18:00
148 13:15 14:15
148 15:45 16:30
149  7:00 18:00
150  7:00 18:00
151  7:00 18:00
152 15:15 16:15
153  7:00 18:00
154 13:45 14:30
155  7:00 18:00
156  7:00 18:00
157 15:30 16:15
158  7:00 18:00
159 10:15 10:45
160  7:45  8:15
161  7:00 18:00
162  7:00 18:00
163 10:30 11:30
163 12:30 13:15
164  7:00 18:00
165 13:45 14:15
165 15:15 16:00
166  7:00  7:30
166 14:30 15:00
167  9:45 10:45
168 13:15 13:45
168 15:15 15:45
169 15:30 16:30
170 15:00 16:00
171  9:00 10:00
171 11:00 12:00
172  9:45 10:30
172 16:15 16:45
173 14:30 15:30
174 14:15 14:45
174 16:15 16:45
175 12:00 13:00
175 14:45 15:15
176  7:00 18:00
177 15:00 15:45
178  8:00  9:00
179 10:45 11:30
179 12:45 13:30
180 13:45 14:30
180 16:15 17:00
181  7:00 18:00
182  7:00 18:00
183 16:00 16:45
184  7:00 18:00
185 10:30 11:15
186  7:00 18:00
187  7:00 18:00
188  7:00 18:00
189  8:30  9:15
189 16:00 16:30
190 14:15 14:45
190 15:45 16:15
191 14:30 15:00
192  7:00 18:00
193  7:00 18:00
194  7:00 18:00
195 12:30 13:30
196 12:15 13:15
197  7:00 18:00
198 12:15 12:45
199 11:00 11:30
199 14:00 14:30
200 13:00 14:00
201  7:00 18:00
STANDTIME_SECTION
2 5
3 5
4 5
5 5
6 5
7 5
8 5
9 5
10 5
11 5
12 5
13 5
14 5
15 5
16 5
17 5
18 5
19 5
20 5
21 5
22 5
23 5
24 5
25 5
26 5
27 5
28 5
29 5
30 5
31 5
32 5
33 5
34 5
35 5
36 5
37 5
38 5
39 5
40 5
41 5
42 5
43 5
44 5
45 5
46 5
47 5
48 5
49 5
50 5
51 5
52 5
53 5
54 5
55 5
56 5
57 5
58 5
59 5
60 5
61 5
62 5
63 5
64 5
65 5
66 5
67 5
68 5
69 5
70 5
71 5
72 5
73 5
74 5
75 5
76 5
77 5
78 5
79 5
80 5
81 5
82 5
83 5
84 5
85 5
86 5
87 5
88 5
89 5
90 5
91 5
92 5
93 5
94 5
95 5
96 5
97 5
98 5
99 5
100 5
101 5
102 5
103 5
104 5
105 5
106 5
107 5
108 5
109 5
110 5
111 5
112 5
113 5
114 5
115 5
116 5
117 5
118 5
119 5
120 5
121 5
122 5
123 5
124 5
125 5
126 5
127 5
128 5
129 5
130 5
131 5
132 5
133 5
134 5
135 5
136 5
137 5
138 5
139 5
140 5
141 5
142 5
143 5
144 5
145 5
146 5
147 5
148 5
149 5
150 5
151 5
152 5
153 5
154 5
155 5
156 5
157 5
158 5
159 5
160 5
161 5
162 5
163 5
164 5
165 5
166 5
167 5
168 5
169 5
170 5
171 5
172 5
173 5
174 5
175 5
176 5
177 5
178 5
179 5
180 5
181 5
182 5
183 5
184 5
185 5
186 5
187 5
188 5
189 5
190 5
191 5
192 5
193 5
194 5
195 5
196 5
197 5
198 5
199 5
200 5
201 5
DEPOT_SECTION
1
-1
EOF
